NAME : portcgen-30-12
COMMENT : portcgen N=30, seed=12
TYPE : TSP
DIMENSION : 30
EDGE_WEIGHT_TYPE : EUC_2D
NODE_COORD_SECTION
1 91872 187624
2 2358 28265
3 -166180 -82483
4 118753 219593
5 -270276 -209663
6 -37198 97761
7 -12369 362075
8 254144 140927
9 142912 194072
10 101844 -9300
11 225159 -14435
12 274914 227643
13 111003 -181230
14 79167 -19612
15 -238617 258241
16 344494 504856
17 -279764 -166937
18 162835 -12258
19 -128385 -291928
20 53477 13605
21 374567 -64031
22 121614 -170391
23 -20195 -8467
24 74397 -1381
25 -81894 214802
26 -151126 -166591
27 -59428 14464
28 211713 303448
29 -52847 213373
30 82815 54287
